/* s = 0.577 = 1/sqrt(3), t = 0.667 = 2/3 */

/* Objective function */

max: r ;

/* Variable bounds */

0.667 - 0.667 * d + 0.5 * d1 + 0.577 * d - 0.577 * d1 >= r;
0.867 * d1 >= r;
0.867 * d2 >= r;
0.75 * d1 + 0.867* d - 0.867 * d1 >= r;
d1 <= 1;
d1 >= 0.5;
d2 <= 1;
d2 >= 0.5;
d <= 1;
d >= 0.5;
